scripts/logs/LP-i7-4/bwp_3_2_1.LP.log.out
Sun 20 May 08:56:32 CEST 2018
CPXPARAM_TimeLimit                               45
CPXPARAM_Threads                                 4
CPXPARAM_MIP_Strategy_CallbackReducedLP          0
Tried aggregator 3 times.
MIP Presolve eliminated 38 rows and 38 columns.
MIP Presolve modified 74 coefficients.
Aggregator did 160 substitutions.
Reduced MIP has 256 rows, 209 columns, and 570 nonzeros.
Reduced MIP has 172 binaries, 3 generals, 0 SOSs, and 24 indicators.
Presolve time = 0.00 sec. (1.19 ticks)
Found incumbent of value 4.000000 after 0.00 sec. (1.82 ticks)
Probing time = 0.00 sec. (0.67 ticks)
Tried aggregator 2 times.
Aggregator did 102 substitutions.
Reduced MIP has 154 rows, 107 columns, and 366 nonzeros.
Reduced MIP has 70 binaries, 37 generals, 0 SOSs, and 24 indicators.
Presolve time = 0.00 sec. (0.44 ticks)
Probing time = 0.00 sec. (0.28 ticks)
Tried aggregator 1 time.
Reduced MIP has 154 rows, 107 columns, and 366 nonzeros.
Reduced MIP has 70 binaries, 37 generals, 0 SOSs, and 24 indicators.
Presolve time = 0.00 sec. (0.28 ticks)
Probing time = 0.00 sec. (0.29 ticks)
Clique table members: 328.
MIP emphasis: balance optimality and feasibility.
MIP search method: dynamic search.
Parallel mode: deterministic, using up to 4 threads.
Root relaxation solution time = 0.00 sec. (0.24 ticks)

        Nodes                                         Cuts/
   Node  Left     Objective  IInf  Best Integer    Best Bound    ItCnt     Gap

*     0+    0                            4.0000        0.0000           100.00%
      0     0        0.0000    24        4.0000        0.0000       10  100.00%
      0     0        0.0000    40        4.0000      Cuts: 95       53  100.00%
      0     0        0.0000     2        4.0000   Impl Bds: 6       55  100.00%
      0     0        0.0000    21        4.0000  Impl Bds: 13       71  100.00%
*     0+    0                            2.0000        0.0000           100.00%
      0     0        cutoff              2.0000        2.0000       71    0.00%
Elapsed time = 0.02 sec. (10.56 ticks, tree = 0.01 MB, solutions = 2)

Implied bound cuts applied:  32

Root node processing (before b&c):
  Real time             =    0.02 sec. (10.58 ticks)
Parallel b&c, 4 threads:
  Real time             =    0.00 sec. (0.00 ticks)
  Sync time (average)   =    0.00 sec.
  Wait time (average)   =    0.00 sec.
                          ------------
Total (root+branch&cut) =    0.02 sec. (10.58 ticks)
  | W
L | 0 1 2 
----------
0 | 1 . . 
1 | 1 2 2 
2 | . . . 
3 | . . . 

Boxes' corners:      (w,l)
    Box 1 is at 
        top left     (0,0)
        bottom right (0,1)

    Box 2 is at 
        top left     (1,1)
        bottom right (2,1)

    Roll length used: 2
In 0.02 seconds
